38113
0 0 1 0 1 0 0 0 0 0 1 1 0 0 0 1 0 0 1 1 0 0 0 0 0 1 0 0 0 0 
18 19 2 18 15 25 15 11 18 11 4 19 10 2 19 18 15 10 18 18 18 15 2 2 10 18 18 19 4 15 19 19 4 15 18 19 19 4 15 15 18 19 19 4 4 19 10 15 19 19 2 15 15 15 19 11 11 4 18 25 4 2 25 10 10 11 10 19 11 25 18 25 19 19 2 10 10 2 4 2 10 2 4 25 4 10 4 2 18 25 11 19 25 25 2 10 11 11 2 11 19 15 25 18 4 2 4 18 18 10 19 4 18 11 11 19 11 25 19 4 4 11 11 19 4 15 2 11 4 2 11 2 25 10 2 4 10 10 11 19 11 18 11 25 25 2 15 15 18 25 18 11 10 2 10 11 2 15 10 10 10 18 10 2 2 18 2 4 10 15 15 10 19 19 4 2 18 10 4 10 2 15 15 19 11 4 11 2 11 15 2 15 19 4 25 25 25 15 10 19 
